Code 334
Dimension, Median
   128       16     
 Facility, Client, Transportation Cost
     1        1           3
     1        2           0
     1        3           3
     1        5           3
     1        9           3
     1       17           1
     1       33           0
     1       65           3
     2        1           4
     2        2           2
     2        4           4
     2        6           2
     2       10           3
     2       18           1
     2       34           3
     2       66           0
     3        1           3
     3        3           4
     3        4           3
     3        7           1
     3       11           1
     3       19           3
     3       35           4
     3       67           0
     4        2           1
     4        3           3
     4        4           4
     4        8           3
     4       12           4
     4       20           2
     4       36           1
     4       68           4
     5        1           0
     5        5           2
     5        6           3
     5        7           4
     5       13           2
     5       21           3
     5       37           1
     5       69           4
     6        2           2
     6        5           2
     6        6           1
     6        8           2
     6       14           4
     6       22           3
     6       38           4
     6       70           4
     7        3           3
     7        5           0
     7        7           4
     7        8           2
     7       15           0
     7       23           2
     7       39           0
     7       71           2
     8        4           1
     8        6           3
     8        7           0
     8        8           0
     8       16           2
     8       24           1
     8       40           2
     8       72           2
     9        1           0
     9        9           2
     9       10           2
     9       11           0
     9       13           2
     9       25           1
     9       41           3
     9       73           4
    10        2           0
    10        9           2
    10       10           0
    10       12           0
    10       14           3
    10       26           3
    10       42           1
    10       74           1
    11        3           2
    11        9           0
    11       11           4
    11       12           1
    11       15           2
    11       27           1
    11       43           4
    11       75           1
    12        4           0
    12       10           3
    12       11           2
    12       12           4
    12       16           1
    12       28           3
    12       44           0
    12       76           1
    13        5           0
    13        9           2
    13       13           3
    13       14           1
    13       15           0
    13       29           0
    13       45           4
    13       77           4
    14        6           2
    14       10           0
    14       13           4
    14       14           2
    14       16           0
    14       30           0
    14       46           3
    14       78           4
    15        7           1
    15       11           2
    15       13           2
    15       15           4
    15       16           2
    15       31           4
    15       47           0
    15       79           1
    16        8           4
    16       12           4
    16       14           4
    16       15           0
    16       16           3
    16       32           1
    16       48           2
    16       80           4
    17        1           4
    17       17           1
    17       18           4
    17       19           2
    17       21           2
    17       25           3
    17       49           2
    17       81           3
    18        2           3
    18       17           4
    18       18           1
    18       20           2
    18       22           2
    18       26           1
    18       50           4
    18       82           0
    19        3           1
    19       17           0
    19       19           4
    19       20           0
    19       23           0
    19       27           1
    19       51           3
    19       83           2
    20        4           2
    20       18           0
    20       19           0
    20       20           1
    20       24           3
    20       28           0
    20       52           4
    20       84           4
    21        5           3
    21       17           1
    21       21           1
    21       22           4
    21       23           4
    21       29           0
    21       53           1
    21       85           0
    22        6           1
    22       18           2
    22       21           2
    22       22           3
    22       24           1
    22       30           3
    22       54           0
    22       86           0
    23        7           2
    23       19           2
    23       21           2
    23       23           3
    23       24           2
    23       31           3
    23       55           4
    23       87           2
    24        8           1
    24       20           3
    24       22           1
    24       23           1
    24       24           0
    24       32           0
    24       56           1
    24       88           3
    25        9           1
    25       17           3
    25       25           4
    25       26           4
    25       27           0
    25       29           3
    25       57           0
    25       89           2
    26       10           1
    26       18           4
    26       25           2
    26       26           1
    26       28           0
    26       30           0
    26       58           4
    26       90           1
    27       11           2
    27       19           2
    27       25           0
    27       27           1
    27       28           3
    27       31           4
    27       59           2
    27       91           4
    28       12           4
    28       20           4
    28       26           4
    28       27           2
    28       28           2
    28       32           4
    28       60           1
    28       92           2
    29       13           4
    29       21           0
    29       25           4
    29       29           4
    29       30           0
    29       31           3
    29       61           3
    29       93           3
    30       14           0
    30       22           0
    30       26           1
    30       29           4
    30       30           3
    30       32           4
    30       62           4
    30       94           1
    31       15           3
    31       23           0
    31       27           2
    31       29           0
    31       31           0
    31       32           1
    31       63           3
    31       95           4
    32       16           2
    32       24           4
    32       28           4
    32       30           4
    32       31           1
    32       32           2
    32       64           3
    32       96           4
    33        1           3
    33       33           2
    33       34           2
    33       35           2
    33       37           4
    33       41           3
    33       49           0
    33       97           4
    34        2           2
    34       33           3
    34       34           4
    34       36           0
    34       38           1
    34       42           2
    34       50           3
    34       98           2
    35        3           1
    35       33           3
    35       35           2
    35       36           1
    35       39           2
    35       43           2
    35       51           4
    35       99           1
    36        4           4
    36       34           2
    36       35           2
    36       36           3
    36       40           0
    36       44           1
    36       52           4
    36      100           3
    37        5           1
    37       33           0
    37       37           4
    37       38           0
    37       39           4
    37       45           2
    37       53           2
    37      101           3
    38        6           1
    38       34           0
    38       37           1
    38       38           0
    38       40           1
    38       46           0
    38       54           4
    38      102           2
    39        7           2
    39       35           4
    39       37           3
    39       39           0
    39       40           2
    39       47           0
    39       55           2
    39      103           0
    40        8           4
    40       36           1
    40       38           0
    40       39           3
    40       40           4
    40       48           2
    40       56           4
    40      104           1
    41        9           4
    41       33           2
    41       41           4
    41       42           1
    41       43           2
    41       45           0
    41       57           2
    41      105           3
    42       10           3
    42       34           3
    42       41           3
    42       42           1
    42       44           4
    42       46           3
    42       58           3
    42      106           0
    43       11           0
    43       35           1
    43       41           0
    43       43           0
    43       44           0
    43       47           4
    43       59           2
    43      107           2
    44       12           2
    44       36           1
    44       42           2
    44       43           1
    44       44           3
    44       48           2
    44       60           3
    44      108           1
    45       13           2
    45       37           1
    45       41           1
    45       45           1
    45       46           1
    45       47           0
    45       61           4
    45      109           2
    46       14           2
    46       38           1
    46       42           3
    46       45           1
    46       46           0
    46       48           0
    46       62           2
    46      110           3
    47       15           2
    47       39           1
    47       43           4
    47       45           3
    47       47           4
    47       48           0
    47       63           4
    47      111           1
    48       16           0
    48       40           0
    48       44           0
    48       46           0
    48       47           3
    48       48           2
    48       64           4
    48      112           2
    49       17           2
    49       33           1
    49       49           3
    49       50           4
    49       51           2
    49       53           3
    49       57           3
    49      113           4
    50       18           0
    50       34           3
    50       49           3
    50       50           0
    50       52           2
    50       54           1
    50       58           3
    50      114           0
    51       19           2
    51       35           0
    51       49           1
    51       51           4
    51       52           3
    51       55           4
    51       59           3
    51      115           3
    52       20           3
    52       36           1
    52       50           4
    52       51           3
    52       52           2
    52       56           3
    52       60           4
    52      116           4
    53       21           1
    53       37           4
    53       49           1
    53       53           4
    53       54           4
    53       55           3
    53       61           0
    53      117           4
    54       22           4
    54       38           1
    54       50           2
    54       53           1
    54       54           1
    54       56           4
    54       62           0
    54      118           2
    55       23           4
    55       39           1
    55       51           4
    55       53           0
    55       55           1
    55       56           1
    55       63           0
    55      119           1
    56       24           3
    56       40           2
    56       52           1
    56       54           2
    56       55           3
    56       56           4
    56       64           1
    56      120           4
    57       25           1
    57       41           3
    57       49           2
    57       57           1
    57       58           4
    57       59           4
    57       61           3
    57      121           4
    58       26           2
    58       42           2
    58       50           4
    58       57           1
    58       58           4
    58       60           4
    58       62           0
    58      122           1
    59       27           4
    59       43           4
    59       51           1
    59       57           3
    59       59           0
    59       60           3
    59       63           1
    59      123           0
    60       28           4
    60       44           1
    60       52           0
    60       58           3
    60       59           2
    60       60           4
    60       64           3
    60      124           4
    61       29           4
    61       45           2
    61       53           1
    61       57           0
    61       61           4
    61       62           1
    61       63           0
    61      125           4
    62       30           3
    62       46           2
    62       54           1
    62       58           2
    62       61           3
    62       62           4
    62       64           3
    62      126           3
    63       31           0
    63       47           0
    63       55           1
    63       59           3
    63       61           2
    63       63           4
    63       64           2
    63      127           0
    64       32           4
    64       48           3
    64       56           4
    64       60           0
    64       62           2
    64       63           2
    64       64           0
    64      128           1
    65        1           0
    65       65           1
    65       66           2
    65       67           1
    65       69           4
    65       73           4
    65       81           3
    65       97           1
    66        2           1
    66       65           3
    66       66           2
    66       68           1
    66       70           2
    66       74           0
    66       82           1
    66       98           3
    67        3           0
    67       65           0
    67       67           3
    67       68           2
    67       71           3
    67       75           2
    67       83           1
    67       99           2
    68        4           0
    68       66           4
    68       67           2
    68       68           3
    68       72           2
    68       76           3
    68       84           0
    68      100           2
    69        5           0
    69       65           0
    69       69           3
    69       70           3
    69       71           3
    69       77           2
    69       85           0
    69      101           2
    70        6           1
    70       66           4
    70       69           4
    70       70           0
    70       72           4
    70       78           1
    70       86           4
    70      102           1
    71        7           2
    71       67           4
    71       69           4
    71       71           1
    71       72           4
    71       79           2
    71       87           4
    71      103           1
    72        8           4
    72       68           0
    72       70           4
    72       71           0
    72       72           3
    72       80           2
    72       88           3
    72      104           3
    73        9           0
    73       65           0
    73       73           4
    73       74           2
    73       75           1
    73       77           1
    73       89           1
    73      105           3
    74       10           4
    74       66           2
    74       73           2
    74       74           1
    74       76           1
    74       78           1
    74       90           2
    74      106           0
    75       11           0
    75       67           1
    75       73           3
    75       75           4
    75       76           3
    75       79           0
    75       91           4
    75      107           3
    76       12           3
    76       68           1
    76       74           3
    76       75           2
    76       76           4
    76       80           3
    76       92           3
    76      108           3
    77       13           2
    77       69           2
    77       73           3
    77       77           2
    77       78           0
    77       79           0
    77       93           4
    77      109           1
    78       14           2
    78       70           2
    78       74           2
    78       77           0
    78       78           4
    78       80           0
    78       94           1
    78      110           1
    79       15           3
    79       71           2
    79       75           0
    79       77           4
    79       79           2
    79       80           4
    79       95           4
    79      111           4
    80       16           0
    80       72           1
    80       76           2
    80       78           3
    80       79           0
    80       80           0
    80       96           2
    80      112           2
    81       17           4
    81       65           4
    81       81           0
    81       82           0
    81       83           3
    81       85           4
    81       89           4
    81      113           1
    82       18           3
    82       66           3
    82       81           0
    82       82           4
    82       84           2
    82       86           4
    82       90           0
    82      114           0
    83       19           0
    83       67           0
    83       81           1
    83       83           1
    83       84           3
    83       87           2
    83       91           4
    83      115           0
    84       20           1
    84       68           2
    84       82           3
    84       83           0
    84       84           1
    84       88           0
    84       92           4
    84      116           0
    85       21           1
    85       69           2
    85       81           1
    85       85           4
    85       86           3
    85       87           3
    85       93           1
    85      117           4
    86       22           4
    86       70           4
    86       82           1
    86       85           1
    86       86           1
    86       88           0
    86       94           1
    86      118           1
    87       23           1
    87       71           4
    87       83           0
    87       85           4
    87       87           3
    87       88           4
    87       95           0
    87      119           4
    88       24           3
    88       72           1
    88       84           2
    88       86           2
    88       87           3
    88       88           0
    88       96           2
    88      120           4
    89       25           4
    89       73           4
    89       81           4
    89       89           1
    89       90           0
    89       91           3
    89       93           0
    89      121           3
    90       26           1
    90       74           1
    90       82           4
    90       89           2
    90       90           3
    90       92           1
    90       94           4
    90      122           0
    91       27           3
    91       75           3
    91       83           2
    91       89           4
    91       91           2
    91       92           4
    91       95           3
    91      123           2
    92       28           0
    92       76           2
    92       84           3
    92       90           1
    92       91           0
    92       92           2
    92       96           0
    92      124           4
    93       29           4
    93       77           4
    93       85           4
    93       89           4
    93       93           0
    93       94           4
    93       95           1
    93      125           2
    94       30           1
    94       78           1
    94       86           3
    94       90           4
    94       93           1
    94       94           4
    94       96           2
    94      126           4
    95       31           4
    95       79           4
    95       87           4
    95       91           1
    95       93           4
    95       95           4
    95       96           2
    95      127           1
    96       32           1
    96       80           0
    96       88           3
    96       92           1
    96       94           4
    96       95           4
    96       96           3
    96      128           1
    97       33           1
    97       65           0
    97       97           1
    97       98           4
    97       99           3
    97      101           1
    97      105           1
    97      113           4
    98       34           1
    98       66           3
    98       97           1
    98       98           0
    98      100           4
    98      102           1
    98      106           0
    98      114           0
    99       35           3
    99       67           0
    99       97           4
    99       99           0
    99      100           0
    99      103           2
    99      107           3
    99      115           0
   100       36           4
   100       68           2
   100       98           2
   100       99           3
   100      100           1
   100      104           4
   100      108           0
   100      116           2
   101       37           1
   101       69           2
   101       97           0
   101      101           4
   101      102           4
   101      103           4
   101      109           0
   101      117           4
   102       38           4
   102       70           0
   102       98           3
   102      101           1
   102      102           4
   102      104           2
   102      110           4
   102      118           2
   103       39           1
   103       71           1
   103       99           1
   103      101           2
   103      103           2
   103      104           3
   103      111           4
   103      119           1
   104       40           1
   104       72           1
   104      100           0
   104      102           0
   104      103           1
   104      104           4
   104      112           1
   104      120           0
   105       41           0
   105       73           4
   105       97           3
   105      105           0
   105      106           1
   105      107           0
   105      109           2
   105      121           1
   106       42           4
   106       74           4
   106       98           1
   106      105           2
   106      106           0
   106      108           2
   106      110           4
   106      122           0
   107       43           3
   107       75           0
   107       99           2
   107      105           0
   107      107           4
   107      108           4
   107      111           4
   107      123           2
   108       44           1
   108       76           1
   108      100           2
   108      106           4
   108      107           2
   108      108           2
   108      112           3
   108      124           4
   109       45           1
   109       77           2
   109      101           4
   109      105           4
   109      109           3
   109      110           3
   109      111           3
   109      125           4
   110       46           1
   110       78           3
   110      102           1
   110      106           1
   110      109           0
   110      110           0
   110      112           4
   110      126           4
   111       47           4
   111       79           1
   111      103           2
   111      107           4
   111      109           3
   111      111           3
   111      112           1
   111      127           2
   112       48           1
   112       80           2
   112      104           0
   112      108           4
   112      110           4
   112      111           2
   112      112           4
   112      128           0
   113       49           0
   113       81           0
   113       97           2
   113      113           4
   113      114           1
   113      115           4
   113      117           0
   113      121           3
   114       50           2
   114       82           0
   114       98           0
   114      113           1
   114      114           2
   114      116           3
   114      118           2
   114      122           2
   115       51           2
   115       83           1
   115       99           3
   115      113           4
   115      115           2
   115      116           1
   115      119           4
   115      123           0
   116       52           4
   116       84           2
   116      100           3
   116      114           4
   116      115           4
   116      116           4
   116      120           4
   116      124           2
   117       53           0
   117       85           3
   117      101           1
   117      113           0
   117      117           3
   117      118           4
   117      119           2
   117      125           4
   118       54           2
   118       86           0
   118      102           2
   118      114           4
   118      117           1
   118      118           1
   118      120           4
   118      126           2
   119       55           3
   119       87           0
   119      103           4
   119      115           0
   119      117           4
   119      119           0
   119      120           3
   119      127           3
   120       56           0
   120       88           3
   120      104           2
   120      116           3
   120      118           4
   120      119           4
   120      120           2
   120      128           1
   121       57           1
   121       89           4
   121      105           2
   121      113           2
   121      121           0
   121      122           4
   121      123           2
   121      125           1
   122       58           4
   122       90           0
   122      106           1
   122      114           4
   122      121           0
   122      122           4
   122      124           2
   122      126           4
   123       59           0
   123       91           3
   123      107           1
   123      115           4
   123      121           3
   123      123           2
   123      124           2
   123      127           3
   124       60           3
   124       92           0
   124      108           2
   124      116           3
   124      122           1
   124      123           2
   124      124           2
   124      128           4
   125       61           2
   125       93           2
   125      109           3
   125      117           4
   125      121           2
   125      125           0
   125      126           4
   125      127           0
   126       62           0
   126       94           2
   126      110           1
   126      118           1
   126      122           3
   126      125           3
   126      126           3
   126      128           2
   127       63           3
   127       95           3
   127      111           0
   127      119           2
   127      123           1
   127      125           0
   127      127           2
   127      128           3
   128       64           3
   128       96           4
   128      112           4
   128      120           4
   128      124           1
   128      126           4
   128      127           4
   128      128           0
